instances/in_30_15_6_3.lp
#const n = 30.
#const k = 15.
#const h = 6.
tile(1,11,3).
tile(2,10,11).
tile(3,12,9).
tile(4,14,15).
tile(5,6,10).
tile(6,9,8).
tile(7,6,8).
tile(8,2,12).
tile(9,2,3).
tile(10,9,14).
tile(11,5,14).
tile(12,15,13).
tile(13,2,9).
tile(14,15,14).
tile(15,11,15).
tile(16,12,8).
tile(17,2,12).
tile(18,12,10).
tile(19,10,13).
tile(20,15,6).
tile(21,11,4).
tile(22,9,1).
tile(23,12,3).
tile(24,12,11).
tile(25,2,8).
tile(26,9,14).
tile(27,6,9).
tile(28,9,12).
tile(29,1,6).
tile(30,13,9).
