minizinc/input/in_30_15_6_3.dzn
n = 30;
k = 15;
h = 6;
tiles = array2d(1..n, 1..2,
[ 11,3
, 10,11
, 12,9
, 14,15
, 6,10
, 9,8
, 6,8
, 2,12
, 2,3
, 9,14
, 5,14
, 15,13
, 2,9
, 15,14
, 11,15
, 12,8
, 2,12
, 12,10
, 10,13
, 15,6
, 11,4
, 9,1
, 12,3
, 12,11
, 2,8
, 9,14
, 6,9
, 9,12
, 1,6
, 13,9
]);